p cnf 79 265
-7 1 0
-7 2 0
7 -1 -2 0
-8 1 0
-8 3 0
8 -1 -3 0
-9 1 0
-9 4 0
9 -1 -4 0
-10 1 0
-10 5 0
10 -1 -5 0
-11 1 0
-11 6 0
11 -1 -6 0
-12 2 0
-12 3 0
12 -2 -3 0
-13 2 0
-13 4 0
13 -2 -4 0
-14 2 0
-14 5 0
14 -2 -5 0
-15 2 0
-15 6 0
15 -2 -6 0
-16 3 0
-16 4 0
16 -3 -4 0
-17 3 0
-17 5 0
17 -3 -5 0
-18 3 0
-18 6 0
18 -3 -6 0
-19 4 0
-19 5 0
19 -4 -5 0
-20 4 0
-20 6 0
20 -4 -6 0
-21 5 0
-21 6 0
21 -5 -6 0
22 0
2 -22 23 0
-2 -22 -23 0
2 -23 22 0
-2 22 23 0
3 -23 24 0
-3 -23 -24 0
3 -24 23 0
-3 23 24 0
4 -24 25 0
-4 -24 -25 0
4 -25 24 0
-4 24 25 0
8 -25 26 0
-8 -25 -26 0
8 -26 25 0
-8 25 26 0
12 -26 27 0
-12 -26 -27 0
12 -27 26 0
-12 26 27 0
13 -27 28 0
-13 -27 -28 0
13 -28 27 0
-13 27 28 0
15 -28 29 0
-15 -28 -29 0
15 -29 28 0
-15 28 29 0
16 -29 30 0
-16 -29 -30 0
16 -30 29 0
-16 29 30 0
19 -30 31 0
-19 -30 -31 0
19 -31 30 0
-19 30 31 0
20 -31 32 0
-20 -31 -32 0
20 -32 31 0
-20 31 32 0
-32 0
-33 0
2 -33 34 0
-2 -33 -34 0
2 -34 33 0
-2 33 34 0
3 -34 35 0
-3 -34 -35 0
3 -35 34 0
-3 34 35 0
8 -35 36 0
-8 -35 -36 0
8 -36 35 0
-8 35 36 0
12 -36 37 0
-12 -36 -37 0
12 -37 36 0
-12 36 37 0
17 -37 38 0
-17 -37 -38 0
17 -38 37 0
-17 37 38 0
-38 0
-39 0
3 -39 40 0
-3 -39 -40 0
3 -40 39 0
-3 39 40 0
4 -40 41 0
-4 -40 -41 0
4 -41 40 0
-4 40 41 0
5 -41 42 0
-5 -41 -42 0
5 -42 41 0
-5 41 42 0
6 -42 43 0
-6 -42 -43 0
6 -43 42 0
-6 42 43 0
7 -43 44 0
-7 -43 -44 0
7 -44 43 0
-7 43 44 0
8 -44 45 0
-8 -44 -45 0
8 -45 44 0
-8 44 45 0
14 -45 46 0
-14 -45 -46 0
14 -46 45 0
-14 45 46 0
19 -46 47 0
-19 -46 -47 0
19 -47 46 0
-19 46 47 0
20 -47 48 0
-20 -47 -48 0
20 -48 47 0
-20 47 48 0
21 -48 49 0
-21 -48 -49 0
21 -49 48 0
-21 48 49 0
-49 0
50 0
2 -50 51 0
-2 -50 -51 0
2 -51 50 0
-2 50 51 0
7 -51 52 0
-7 -51 -52 0
7 -52 51 0
-7 51 52 0
8 -52 53 0
-8 -52 -53 0
8 -53 52 0
-8 52 53 0
12 -53 54 0
-12 -53 -54 0
12 -54 53 0
-12 53 54 0
14 -54 55 0
-14 -54 -55 0
14 -55 54 0
-14 54 55 0
15 -55 56 0
-15 -55 -56 0
15 -56 55 0
-15 55 56 0
17 -56 57 0
-17 -56 -57 0
17 -57 56 0
-17 56 57 0
18 -57 58 0
-18 -57 -58 0
18 -58 57 0
-18 57 58 0
21 -58 59 0
-21 -58 -59 0
21 -59 58 0
-21 58 59 0
-59 0
-60 0
1 -60 61 0
-1 -60 -61 0
1 -61 60 0
-1 60 61 0
2 -61 62 0
-2 -61 -62 0
2 -62 61 0
-2 61 62 0
6 -62 63 0
-6 -62 -63 0
6 -63 62 0
-6 62 63 0
9 -63 64 0
-9 -63 -64 0
9 -64 63 0
-9 63 64 0
11 -64 65 0
-11 -64 -65 0
11 -65 64 0
-11 64 65 0
12 -65 66 0
-12 -65 -66 0
12 -66 65 0
-12 65 66 0
14 -66 67 0
-14 -66 -67 0
14 -67 66 0
-14 66 67 0
17 -67 68 0
-17 -67 -68 0
17 -68 67 0
-17 67 68 0
20 -68 69 0
-20 -68 -69 0
20 -69 68 0
-20 68 69 0
-69 0
70 0
1 -70 71 0
-1 -70 -71 0
1 -71 70 0
-1 70 71 0
3 -71 72 0
-3 -71 -72 0
3 -72 71 0
-3 71 72 0
7 -72 73 0
-7 -72 -73 0
7 -73 72 0
-7 72 73 0
9 -73 74 0
-9 -73 -74 0
9 -74 73 0
-9 73 74 0
10 -74 75 0
-10 -74 -75 0
10 -75 74 0
-10 74 75 0
12 -75 76 0
-12 -75 -76 0
12 -76 75 0
-12 75 76 0
15 -76 77 0
-15 -76 -77 0
15 -77 76 0
-15 76 77 0
18 -77 78 0
-18 -77 -78 0
18 -78 77 0
-18 77 78 0
19 -78 79 0
-19 -78 -79 0
19 -79 78 0
-19 78 79 0
-79 0
